qe/outputs/qe/qe_queries/T=5,eliminate=[I_0,I_1,I_2,I_3,I_4,L_4,B].smt2
; benchmark generated from python API
(set-info :status unknown)
(declare-fun S_3 () Real)
(declare-fun A_3 () Real)
(declare-fun L_3 () Real)
(declare-fun C () Real)
(declare-fun L_2 () Real)
(declare-fun A_2 () Real)
(declare-fun S_2 () Real)
(declare-fun S_1 () Real)
(declare-fun L_0 () Real)
(declare-fun A_0 () Real)
(declare-fun A_1 () Real)
(declare-fun L_1 () Real)
(declare-fun S_0 () Real)
(declare-fun S_4 () Real)
(declare-fun A_4 () Real)
(assert
 (let ((?x872 (* (- 1.0) A_3)))
 (let ((?x694 (* (- 1.0) L_1)))
 (let ((?x1172 (* (- 1.0) S_1)))
 (let ((?x685 (* (- 1.0) L_0)))
 (let ((?x894 (* 3.0 C)))
 (let ((?x1817 (* 2.0 A_0)))
 (let (($x2967 (<= (+ ?x1817 ?x894 ?x685 ?x1172 L_3 ?x694 ?x872) 0.0)))
 (let (($x1816 (<= (+ (* (- 1.0) L_2) L_3) 0.0)))
 (let (($x1839 (<= (+ A_0 C ?x685 L_1 (* (- 1.0) A_1)) 0.0)))
 (let (($x1763 (not $x1839)))
 (let (($x1310 (<= (+ A_2 (* (- 1.0) L_2) (* (- 2.0) C) L_0 (* (- 1.0) A_0)) 0.0)))
 (let (($x1833 (<= (+ ?x1817 (* 2.0 C) ?x685 ?x1172 L_2 ?x694 (* (- 1.0) A_2)) 0.0)))
 (let (($x1762 (not (<= (+ A_0 (* 2.0 C) ?x685 L_2 (* (- 1.0) A_2)) 0.0))))
 (let (($x1575 (<= (+ ?x694 L_2) 0.0)))
 (let (($x1302 (<= (+ ?x694 A_1 (* (- 1.0) C) L_0 (* (- 1.0) A_0)) 0.0)))
 (let ((?x708 (* (- 1.0) A_0)))
 (let ((?x703 (* (- 1.0) L_2)))
 (let (($x1311 (not $x1310)))
 (let (($x10680 (or $x1302 $x1311 $x1816 (<= (+ A_2 ?x703 ?x708 L_0 L_3 ?x694 A_1 ?x872) 0.0))))
 (let (($x2178 (<= (+ (* (- 2.0) L_1) A_1 (* 2.0 C) ?x1172 L_3 A_0 ?x872) 0.0)))
 (let ((?x712 (* (- 1.0) L_3)))
 (let ((?x1296 (* (- 2.0) C)))
 (let ((?x699 (* (- 1.0) A_1)))
 (let ((?x1586 (* 2.0 L_1)))
 (let (($x1592 (<= (+ ?x1586 ?x699 ?x1296 S_0 ?x712 ?x708 A_3) 0.0)))
 (let (($x1231 (<= (+ A_2 ?x703 L_1 ?x699 (* (- 1.0) C)) 0.0)))
 (let (($x628 (= ?x694 ?x685)))
 (let (($x1561 (<= (+ ?x694 A_1 (* 2.0 C) (* (- 1.0) S_4)) 0.0)))
 (let (($x1208 (<= (+ ?x712 A_3 (* (- 1.0) S_4)) 0.0)))
 (let (($x3029 (<= (+ A_2 ?x703 C A_0 ?x1172 L_3 ?x694 ?x872) 0.0)))
 (let (($x1214 (not $x1231)))
 (let (($x10903 (or $x1214 $x1311 $x1816 (not (<= (+ C L_3 ?x703 A_2 ?x872) 0.0)) $x3029)))
 (let (($x2130 (<= (+ C L_3 ?x703 A_2 ?x872) 0.0)))
 (let (($x1284 (<= (+ ?x694 ?x1172 A_0) 0.0)))
 (let (($x1308 (<= (+ ?x712 A_3 (* (- 1.0) A_2) L_2 (* (- 1.0) C)) 0.0)))
 (let ((?x1180 (* (- 1.0) C)))
 (let ((?x782 (* (- 1.0) A_2)))
 (let (($x2981 (<= (+ ?x782 L_2 ?x1180 ?x708 S_0 ?x712 L_1 A_3) 0.0)))
 (let (($x10610 (or $x628 $x1302 $x2981 (<= (+ ?x782 L_2 A_0 ?x685 L_1 ?x712 ?x699 A_3) 0.0))))
 (let (($x3641 (or $x1208 $x1310 $x1561 (<= (+ (* (- 1.0) S_4) A_0 ?x894 ?x685) 0.0))))
 (let (($x11066 (or $x1231 $x1575 $x1839 (<= (+ (* (- 2.0) L_1) A_1 C ?x1172 L_2 A_0 ?x782) 0.0))))
 (let (($x1879 (<= (+ (* (- 2.0) A_0) (* (- 3.0) C) L_0 S_0 L_1 ?x712 A_3) 0.0)))
 (let (($x10715 (or $x628 $x1231 (<= (+ (* (- 2.0) A_0) ?x1296 L_0 S_0 L_1 ?x703 A_2) 0.0))))
 (let (($x2296 (or (<= (+ A_2 ?x703 (* (- 1.0) S_3)) 0.0) (<= (+ ?x694 A_1 C (* (- 1.0) S_3)) 0.0) (<= (+ A_0 (* 2.0 C) ?x685 (* (- 1.0) S_3)) 0.0))))
 (let (($x1981 (or (<= (+ ?x694 A_1 (* (- 1.0) S_2)) 0.0) (<= (+ A_0 C ?x685 (* (- 1.0) S_2)) 0.0))))
 (and (<= ?x694 ?x685) (<= ?x712 ?x703) (<= ?x703 ?x694) $x1981 (or $x1231 $x1816 $x2130) $x2296 $x10715 (or $x628 (<= (+ ?x712 A_3 L_1 ?x699 ?x1296) 0.0) $x1879) (or $x1302 $x1816 $x2130) (or $x1302 $x1311 $x1575) (or $x1310 (<= (+ ?x694 A_1 (* 2.0 C) L_3 ?x872) 0.0) $x1816) (or $x1302 $x1575 $x1833) (or $x1308 $x1575) (or $x1284 $x1575 (<= (+ ?x694 A_1 C L_2 ?x782) 0.0)) $x11066 (or $x1302 $x1575 (<= (+ ?x694 A_1 C L_2 ?x782) 0.0)) $x3641 (or $x628 $x1310 $x1592 $x1839) $x10610 (or $x628 $x1231 (<= (+ ?x1586 ?x699 ?x1180 S_0 ?x703 ?x708 A_2) 0.0)) (or $x1214 $x1284 $x1575 $x1839) (or $x628 $x1308 $x1839 $x2981) (or $x1284 $x1311 (<= (+ ?x694 A_1 C L_2 ?x782) 0.0) $x1816 $x3029) (or $x628 (not $x1302) $x1308 $x2981) (or $x1214 $x1308 $x1311 $x1816 $x3029) (or $x1284 $x1816 $x2130) $x10903 (or $x1208 $x1311 $x1561 (<= (+ A_2 ?x703 C (* (- 1.0) S_4)) 0.0)) (or $x1231 $x1311 $x1816 $x2178) (or $x628 $x1231 $x1592) (or $x1310 $x1816 $x1839 $x2178) $x10680 (or $x1302 $x1762 $x1816 $x2967) (or $x1575 $x1762 $x1763 $x1833) (or $x1310 $x1763 $x1816 $x2967) (<= (+ L_3 ?x872 S_4 ?x1180) 0.0) (<= (+ S_4 ?x782 L_2 ?x1296) 0.0) (<= (+ S_4 L_1 ?x699 (* (- 3.0) C)) 0.0) (<= (+ L_3 S_4 (* (- 1.0) A_4)) 0.0) (<= (+ ?x1172 S_0) 0.0) (<= (+ L_1 ?x699 S_1) 0.0) (<= (+ S_4 (* (- 4.0) C) L_0 ?x708) 0.0) (<= (+ S_0 L_0 ?x708) 0.0) (<= (+ L_1 ?x699 ?x1180 S_2) 0.0) (<= (+ L_1 ?x699 ?x1296 S_3) 0.0) (<= (+ ?x708 ?x1296 L_0 S_2) 0.0) (<= (+ ?x708 (* (- 3.0) C) L_0 S_3) 0.0) (<= (+ ?x708 ?x1180 L_0 S_1) 0.0) (<= (+ ?x782 L_2 S_2) 0.0) (<= (+ ?x782 L_2 ?x1180 S_3) 0.0) (<= (+ L_3 ?x872 S_3) 0.0))))))))))))))))))))))))))))))))))))))))))))))))
(check-sat)
